"B1 N1"
1.0
        2.5102670193         0.0000000000         0.0000000000
       -1.2551335096         2.1739550090         0.0000000000
        0.0000000000         0.0000000000        15.0000000000
    B    N
    1    1
Direct
     0.333332986         0.666666985         0.500000000
     0.666666985         0.333332986         0.500000000
